s td 148 5 200
b 1 67 125
b 2 64 199
b 3 62 125 126
b 4 15 126 127
b 5 48 127 128
b 6 45 101
b 7 6 128 129
b 8 57 129 130
b 9 89 101 102
b 10 56 102 103
b 11 60 130 131
b 12 43 131 132
b 13 30 103 104
b 14 16 132 133
b 15 35 133 134
b 16 65 134 135
b 17 91 135 136
b 18 19 136 137
b 19 83 137 138
b 20 28 138 139
b 21 3 139 140
b 22 77 140 141
b 23 88 141 142
b 24 72 142 143
b 25 47 143 144
b 26 13 144 145
b 27 26 155
b 28 20 155 156
b 29 59 156 157
b 30 84 157 158
b 31 21 158 159
b 32 52 159 160
b 33 29 160 161
b 34 98 161 162
b 35 55 162 163
b 36 51 163 164
b 37 70 164 165
b 38 86 165 166
b 39 1 166 167
b 40 12 120 121
b 41 54 121 122
b 42 27 119 120
b 43 69 118 119
b 44 63 117 118
b 45 18 116 117
b 46 8 115 116
b 47 14 114 115
b 48 38 113 114
b 49 81 112 113
b 50 34 111 112
b 51 37 110 111
b 52 111 112 113
b 53 39 184 185
b 54 96 185 186
b 55 58 186 187
b 56 25 187 188
b 57 94 188 189
b 58 74 189 190
b 59 5 190 191
b 60 24 191 192
b 61 61 192 193
b 62 82 183 184
b 63 4 182 183
b 64 53 181 182
b 65 68 180 181
b 66 50 179 180
b 67 90 178 179
b 68 76 93 198
b 69 44 197 198
b 70 17 196 197
b 71 100 195 196
b 72 87 194 195
b 73 75 193 194
b 74 189 190 191
b 75 119 120 121
b 76 180 181 182
b 77 33 99 124
b 78 23 123 124
b 79 178 179 180
b 80 78 175 176
b 81 71 174 175
b 82 85 173 174
b 83 49 176 177
b 84 180 182 183
b 85 10 170 171
b 86 11 169 170
b 87 42 168 169
b 88 97 167 168
b 89 169 170 171
b 90 186 187 188
b 91 40 151 152
b 92 9 152 153
b 93 92 153 154
b 94 7 66 154
b 95 174 175 176
b 96 188 189 191
b 97 110 111 113
b 98 46 108 109
b 99 31 147 148
b 100 2 146 147
b 101 22 145 146
b 102 180 183 184
b 103 95 105 106
b 104 32 104 105
b 105 80 106 107
b 106 105 106 107
b 107 180 184 185
b 108 32 105 107
b 109 118 119 121
b 110 191 192 193
b 111 174 176 177
b 112 117 118 121
b 113 178 180 185
b 114 75 191 193
b 115 146 147 148
b 116 41 199 200
b 117 41 150 151
b 118 73 149 150
b 119 116 117 121
b 120 115 116 121
b 121 115 121 122
b 122 41 150 200
b 123 173 174 177
b 124 113 114 115
b 125 22 146 148
b 126 185 186 188
b 127 178 185 188
b 128 168 169 171
b 129 113 115 122
b 130 110 113 122
b 131 97 168 171
b 132 149 150 200
b 133 178 188 191
b 134 75 178 191
b 135 33 123 124
b 136 79 148 149 200
b 137 22 79 148 200
b 138 75 107 108 109
b 139 32 75 177 178
b 140 32 75 107 109
b 141 32 75 109 177
b 142 109 173 177
b 143 97 109 110 173
b 144 97 110 122 173
b 145 97 122 171 173
b 146 33 36 122 123
b 147 33 36 171 172 173
b 148 33 36 122 171 173
147 148
145 148
146 148
135 146
77 135
78 135
144 145
131 145
128 131
88 131
39 88
38 39
37 38
36 37
35 36
34 35
33 34
32 33
31 32
30 31
29 30
28 29
27 28
87 128
89 128
85 89
86 89
143 144
130 144
129 130
97 130
51 97
52 97
50 52
49 52
121 129
124 129
48 124
47 124
41 121
120 121
46 120
119 120
45 119
112 119
44 112
109 112
43 109
75 109
40 75
42 75
142 143
141 142
123 142
111 123
82 123
95 111
83 111
81 95
80 95
139 141
140 141
138 140
108 140
104 108
106 108
105 106
103 106
13 104
10 13
9 10
6 9
98 138
134 139
133 134
114 134
73 114
110 114
60 110
61 110
2 110
116 2
122 116
132 122
117 122
91 117
92 91
93 92
94 93
136 132
118 132
137 136
125 137
115 125
101 125
26 101
25 26
24 25
23 24
22 23
21 22
20 21
19 20
18 19
17 18
16 17
15 16
14 15
12 14
11 12
8 11
7 8
5 7
4 5
3 4
1 3
99 115
100 115
72 73
71 72
70 71
69 70
68 69
127 133
96 133
74 96
57 96
58 74
59 74
113 127
126 127
54 126
90 126
55 90
56 90
107 113
79 113
66 79
67 79
53 107
102 107
62 102
84 102
63 84
76 84
64 76
65 76
